b -2
b -7
b -12
b -13
b -14
b -15
b -19
b -20
b 22
b -33
b -34
b -35
b -46
b -47
b -48
b -53
b -54
b -63
b -64
b -72
b -73
b -74
b -75
b -76
b -77
b -78
b -81
b -82
b -83
b -4
b 5
b 6
b -8
b -9
b -16
b 21
b 30
b 31
b 32
b 42
b 43
b 44
b 45
b 49
b 50
b 52
b -55
b 56
b 57
b 58
b 79
b -80
b 0
s SATISFIABLE
